NAME : 10_3_3_2_(08).dat
COMMENT : Henke, Speranza, Wäscher, 2015
TYPE : MCVRP
DIMENSION : 11
EDGE_WEIGHT_TYPE : DISTANCE_MATRIX
CAPACITY : 1000
VEHICLES : 2
PRODUCT TYPES : 3
COMPARTMENTS : 3
NODE_COORD_SECTION
1 50 50
2 5.24 25
3 0.83 72.79
4 14.21 47.03
5 9.68 90.07
6 20.51 14.4
7 2.53 5.56
8 6.17 79.9
9 15.86 55.12
10 2.37 25.37
11 57.14 44.43
DEMAND_SECTION
1 0 0 0
2 60 23 0
3 0 37 55
4 52 5 0
5 151 82 0
6 36 30 0
7 0 104 117
8 153 0 44
9 158 76 0
10 18 0 49
11 39 41 0
DEPOT_SECTION
1
EOF